(set-logic QF_S)
(declare-fun _var_0xINPUT_102002_() String)
(declare-fun __woorpje_diseq_pref0_() String)
(declare-fun __woorpje_diseq_suf_l0_() String)
(declare-fun __woorpje_diseq_suf_r0_() String)
(assert (=(str.++  "bLBKTGbnvu" "")(str.++ __woorpje_diseq_pref0_  "n" __woorpje_diseq_suf_l0_  "")) )
(assert (=(str.++ _var_0xINPUT_102002_  "")(str.++ __woorpje_diseq_pref0_  "u" __woorpje_diseq_suf_r0_  "")) )
(check-sat)
